; benchmark generated from python API
(set-info :status unknown)
(declare-fun cell_1_1 () Int)
(declare-fun cell_2_1 () Int)
(declare-fun cell_3_1 () Int)
(declare-fun cell_4_1 () Int)
(declare-fun cell_5_1 () Int)
(declare-fun cell_6_1 () Int)
(declare-fun cell_7_1 () Int)
(declare-fun cell_8_1 () Int)
(declare-fun cell_9_1 () Int)
(declare-fun cell_1_2 () Int)
(declare-fun cell_2_2 () Int)
(declare-fun cell_3_2 () Int)
(declare-fun cell_4_2 () Int)
(declare-fun cell_5_2 () Int)
(declare-fun cell_6_2 () Int)
(declare-fun cell_7_2 () Int)
(declare-fun cell_8_2 () Int)
(declare-fun cell_9_2 () Int)
(declare-fun cell_1_3 () Int)
(declare-fun cell_2_3 () Int)
(declare-fun cell_3_3 () Int)
(declare-fun cell_4_3 () Int)
(declare-fun cell_5_3 () Int)
(declare-fun cell_6_3 () Int)
(declare-fun cell_7_3 () Int)
(declare-fun cell_8_3 () Int)
(declare-fun cell_9_3 () Int)
(declare-fun cell_1_4 () Int)
(declare-fun cell_2_4 () Int)
(declare-fun cell_3_4 () Int)
(declare-fun cell_4_4 () Int)
(declare-fun cell_5_4 () Int)
(declare-fun cell_6_4 () Int)
(declare-fun cell_7_4 () Int)
(declare-fun cell_8_4 () Int)
(declare-fun cell_9_4 () Int)
(declare-fun cell_1_5 () Int)
(declare-fun cell_2_5 () Int)
(declare-fun cell_3_5 () Int)
(declare-fun cell_4_5 () Int)
(declare-fun cell_5_5 () Int)
(declare-fun cell_6_5 () Int)
(declare-fun cell_7_5 () Int)
(declare-fun cell_8_5 () Int)
(declare-fun cell_9_5 () Int)
(declare-fun cell_1_6 () Int)
(declare-fun cell_2_6 () Int)
(declare-fun cell_3_6 () Int)
(declare-fun cell_4_6 () Int)
(declare-fun cell_5_6 () Int)
(declare-fun cell_6_6 () Int)
(declare-fun cell_7_6 () Int)
(declare-fun cell_8_6 () Int)
(declare-fun cell_9_6 () Int)
(declare-fun cell_1_7 () Int)
(declare-fun cell_2_7 () Int)
(declare-fun cell_3_7 () Int)
(declare-fun cell_4_7 () Int)
(declare-fun cell_5_7 () Int)
(declare-fun cell_6_7 () Int)
(declare-fun cell_7_7 () Int)
(declare-fun cell_8_7 () Int)
(declare-fun cell_9_7 () Int)
(declare-fun cell_1_8 () Int)
(declare-fun cell_2_8 () Int)
(declare-fun cell_3_8 () Int)
(declare-fun cell_4_8 () Int)
(declare-fun cell_5_8 () Int)
(declare-fun cell_6_8 () Int)
(declare-fun cell_7_8 () Int)
(declare-fun cell_8_8 () Int)
(declare-fun cell_9_8 () Int)
(declare-fun cell_1_9 () Int)
(declare-fun cell_2_9 () Int)
(declare-fun cell_3_9 () Int)
(declare-fun cell_4_9 () Int)
(declare-fun cell_5_9 () Int)
(declare-fun cell_6_9 () Int)
(declare-fun cell_7_9 () Int)
(declare-fun cell_8_9 () Int)
(declare-fun cell_9_9 () Int)
(assert
 (let (($x683 (= cell_1_1 9)))
 (let (($x1051 (= cell_1_1 8)))
 (let (($x270 (= cell_1_1 7)))
 (let (($x786 (= cell_1_1 6)))
 (let (($x1547 (= cell_1_1 5)))
 (let (($x142 (= cell_1_1 4)))
 (let (($x379 (= cell_1_1 3)))
 (let (($x815 (= cell_1_1 2)))
 (let (($x262 (= cell_1_1 1)))
 (or $x262 $x815 $x379 $x142 $x1547 $x786 $x270 $x1051 $x683)))))))))))
(assert
 (let (($x688 (= cell_2_1 9)))
 (let (($x1525 (= cell_2_1 8)))
 (let (($x799 (= cell_2_1 7)))
 (let (($x926 (= cell_2_1 6)))
 (let (($x383 (= cell_2_1 5)))
 (let (($x281 (= cell_2_1 4)))
 (let (($x856 (= cell_2_1 3)))
 (let (($x97 (= cell_2_1 2)))
 (let (($x384 (= cell_2_1 1)))
 (or $x384 $x97 $x856 $x281 $x383 $x926 $x799 $x1525 $x688)))))))))))
(assert
 (let (($x749 (= cell_3_1 9)))
 (let (($x959 (= cell_3_1 8)))
 (let (($x789 (= cell_3_1 7)))
 (let (($x414 (= cell_3_1 6)))
 (let (($x392 (= cell_3_1 5)))
 (let (($x137 (= cell_3_1 4)))
 (let (($x182 (= cell_3_1 3)))
 (let (($x1327 (= cell_3_1 2)))
 (let (($x210 (= cell_3_1 1)))
 (or $x210 $x1327 $x182 $x137 $x392 $x414 $x789 $x959 $x749)))))))))))
(assert
 (let (($x355 (= cell_4_1 9)))
 (let (($x1224 (= cell_4_1 8)))
 (let (($x903 (= cell_4_1 7)))
 (let (($x1138 (= cell_4_1 6)))
 (let (($x541 (= cell_4_1 5)))
 (let (($x896 (= cell_4_1 4)))
 (let (($x1455 (= cell_4_1 3)))
 (let (($x1144 (= cell_4_1 2)))
 (let (($x1534 (= cell_4_1 1)))
 (or $x1534 $x1144 $x1455 $x896 $x541 $x1138 $x903 $x1224 $x355)))))))))))
(assert
 (let (($x1286 (= cell_5_1 9)))
 (let (($x984 (= cell_5_1 8)))
 (let (($x762 (= cell_5_1 7)))
 (let (($x171 (= cell_5_1 6)))
 (let (($x473 (= cell_5_1 5)))
 (let (($x1056 (= cell_5_1 4)))
 (let (($x1472 (= cell_5_1 3)))
 (let (($x847 (= cell_5_1 2)))
 (let (($x803 (= cell_5_1 1)))
 (or $x803 $x847 $x1472 $x1056 $x473 $x171 $x762 $x984 $x1286)))))))))))
(assert
 (let (($x1287 (= cell_6_1 9)))
 (let (($x556 (= cell_6_1 8)))
 (let (($x1430 (= cell_6_1 7)))
 (let (($x968 (= cell_6_1 6)))
 (let (($x221 (= cell_6_1 5)))
 (let (($x395 (= cell_6_1 4)))
 (let (($x1486 (= cell_6_1 3)))
 (let (($x1498 (= cell_6_1 2)))
 (let (($x1194 (= cell_6_1 1)))
 (or $x1194 $x1498 $x1486 $x395 $x221 $x968 $x1430 $x556 $x1287)))))))))))
(assert
 (let (($x700 (= cell_7_1 9)))
 (let (($x337 (= cell_7_1 8)))
 (let (($x305 (= cell_7_1 7)))
 (let (($x676 (= cell_7_1 6)))
 (let (($x215 (= cell_7_1 5)))
 (let (($x502 (= cell_7_1 4)))
 (let (($x1511 (= cell_7_1 3)))
 (let (($x125 (= cell_7_1 2)))
 (let (($x1196 (= cell_7_1 1)))
 (or $x1196 $x125 $x1511 $x502 $x215 $x676 $x305 $x337 $x700)))))))))))
(assert
 (let (($x429 (= cell_8_1 9)))
 (let (($x1214 (= cell_8_1 8)))
 (let (($x1447 (= cell_8_1 7)))
 (let (($x1001 (= cell_8_1 6)))
 (let (($x1509 (= cell_8_1 5)))
 (let (($x1283 (= cell_8_1 4)))
 (let (($x1218 (= cell_8_1 3)))
 (let (($x493 (= cell_8_1 2)))
 (let (($x1049 (= cell_8_1 1)))
 (or $x1049 $x493 $x1218 $x1283 $x1509 $x1001 $x1447 $x1214 $x429)))))))))))
(assert
 (let (($x397 (= cell_9_1 9)))
 (let (($x812 (= cell_9_1 8)))
 (let (($x1009 (= cell_9_1 7)))
 (let (($x115 (= cell_9_1 6)))
 (let (($x931 (= cell_9_1 5)))
 (let (($x444 (= cell_9_1 4)))
 (let (($x572 (= cell_9_1 3)))
 (let (($x1309 (= cell_9_1 2)))
 (let (($x814 (= cell_9_1 1)))
 (or $x814 $x1309 $x572 $x444 $x931 $x115 $x1009 $x812 $x397)))))))))))
(assert
 (let (($x1456 (= cell_1_2 9)))
 (let (($x831 (= cell_1_2 8)))
 (let (($x273 (= cell_1_2 7)))
 (let (($x1158 (= cell_1_2 6)))
 (let (($x1502 (= cell_1_2 5)))
 (let (($x829 (= cell_1_2 4)))
 (let (($x440 (= cell_1_2 3)))
 (let (($x228 (= cell_1_2 2)))
 (let (($x1026 (= cell_1_2 1)))
 (or $x1026 $x228 $x440 $x829 $x1502 $x1158 $x273 $x831 $x1456)))))))))))
(assert
 (let (($x480 (= cell_2_2 9)))
 (let (($x657 (= cell_2_2 8)))
 (let (($x433 (= cell_2_2 7)))
 (let (($x664 (= cell_2_2 6)))
 (let (($x465 (= cell_2_2 5)))
 (let (($x1401 (= cell_2_2 4)))
 (let (($x576 (= cell_2_2 3)))
 (let (($x830 (= cell_2_2 2)))
 (let (($x1070 (= cell_2_2 1)))
 (or $x1070 $x830 $x576 $x1401 $x465 $x664 $x433 $x657 $x480)))))))))))
(assert
 (let (($x648 (= cell_3_2 9)))
 (let (($x691 (= cell_3_2 8)))
 (let (($x310 (= cell_3_2 7)))
 (let (($x549 (= cell_3_2 6)))
 (let (($x1454 (= cell_3_2 5)))
 (let (($x1008 (= cell_3_2 4)))
 (let (($x900 (= cell_3_2 3)))
 (let (($x1131 (= cell_3_2 2)))
 (let (($x565 (= cell_3_2 1)))
 (or $x565 $x1131 $x900 $x1008 $x1454 $x549 $x310 $x691 $x648)))))))))))
(assert
 (let (($x446 (= cell_4_2 9)))
 (let (($x670 (= cell_4_2 8)))
 (let (($x1294 (= cell_4_2 7)))
 (let (($x941 (= cell_4_2 6)))
 (let (($x972 (= cell_4_2 5)))
 (let (($x1129 (= cell_4_2 4)))
 (let (($x1025 (= cell_4_2 3)))
 (let (($x539 (= cell_4_2 2)))
 (let (($x1264 (= cell_4_2 1)))
 (or $x1264 $x539 $x1025 $x1129 $x972 $x941 $x1294 $x670 $x446)))))))))))
(assert
 (let (($x1182 (= cell_5_2 9)))
 (let (($x890 (= cell_5_2 8)))
 (let (($x452 (= cell_5_2 7)))
 (let (($x627 (= cell_5_2 6)))
 (let (($x117 (= cell_5_2 5)))
 (let (($x1108 (= cell_5_2 4)))
 (let (($x1324 (= cell_5_2 3)))
 (let (($x1482 (= cell_5_2 2)))
 (let (($x1145 (= cell_5_2 1)))
 (or $x1145 $x1482 $x1324 $x1108 $x117 $x627 $x452 $x890 $x1182)))))))))))
(assert
 (let (($x160 (= cell_6_2 9)))
 (let (($x230 (= cell_6_2 8)))
 (let (($x596 (= cell_6_2 7)))
 (let (($x1442 (= cell_6_2 6)))
 (let (($x387 (= cell_6_2 5)))
 (let (($x732 (= cell_6_2 4)))
 (let (($x848 (= cell_6_2 3)))
 (let (($x707 (= cell_6_2 2)))
 (let (($x928 (= cell_6_2 1)))
 (or $x928 $x707 $x848 $x732 $x387 $x1442 $x596 $x230 $x160)))))))))))
(assert
 (let (($x1532 (= cell_7_2 9)))
 (let (($x542 (= cell_7_2 8)))
 (let (($x275 (= cell_7_2 7)))
 (let (($x220 (= cell_7_2 6)))
 (let (($x775 (= cell_7_2 5)))
 (let (($x283 (= cell_7_2 4)))
 (let (($x1247 (= cell_7_2 3)))
 (let (($x751 (= cell_7_2 2)))
 (let (($x194 (= cell_7_2 1)))
 (or $x194 $x751 $x1247 $x283 $x775 $x220 $x275 $x542 $x1532)))))))))))
(assert
 (let (($x540 (= cell_8_2 9)))
 (let (($x1506 (= cell_8_2 8)))
 (let (($x165 (= cell_8_2 7)))
 (let (($x1175 (= cell_8_2 6)))
 (let (($x991 (= cell_8_2 5)))
 (let (($x851 (= cell_8_2 4)))
 (let (($x1076 (= cell_8_2 3)))
 (let (($x357 (= cell_8_2 2)))
 (let (($x1146 (= cell_8_2 1)))
 (or $x1146 $x357 $x1076 $x851 $x991 $x1175 $x165 $x1506 $x540)))))))))))
(assert
 (let (($x1329 (= cell_9_2 9)))
 (let (($x1101 (= cell_9_2 8)))
 (let (($x655 (= cell_9_2 7)))
 (let (($x1379 (= cell_9_2 6)))
 (let (($x410 (= cell_9_2 5)))
 (let (($x1136 (= cell_9_2 4)))
 (let (($x723 (= cell_9_2 3)))
 (let (($x1426 (= cell_9_2 2)))
 (let (($x168 (= cell_9_2 1)))
 (or $x168 $x1426 $x723 $x1136 $x410 $x1379 $x655 $x1101 $x1329)))))))))))
(assert
 (let (($x563 (= cell_1_3 9)))
 (let (($x897 (= cell_1_3 8)))
 (let (($x1219 (= cell_1_3 7)))
 (let (($x408 (= cell_1_3 6)))
 (let (($x404 (= cell_1_3 5)))
 (let (($x1577 (= cell_1_3 4)))
 (let (($x382 (= cell_1_3 3)))
 (let (($x190 (= cell_1_3 2)))
 (let (($x643 (= cell_1_3 1)))
 (or $x643 $x190 $x382 $x1577 $x404 $x408 $x1219 $x897 $x563)))))))))))
(assert
 (let (($x973 (= cell_2_3 9)))
 (let (($x1518 (= cell_2_3 8)))
 (let (($x1084 (= cell_2_3 7)))
 (let (($x525 (= cell_2_3 6)))
 (let (($x1260 (= cell_2_3 5)))
 (let (($x143 (= cell_2_3 4)))
 (let (($x299 (= cell_2_3 3)))
 (let (($x83 (= cell_2_3 2)))
 (let (($x610 (= cell_2_3 1)))
 (or $x610 $x83 $x299 $x143 $x1260 $x525 $x1084 $x1518 $x973)))))))))))
(assert
 (let (($x260 (= cell_3_3 9)))
 (let (($x319 (= cell_3_3 8)))
 (let (($x454 (= cell_3_3 7)))
 (let (($x302 (= cell_3_3 6)))
 (let (($x987 (= cell_3_3 5)))
 (let (($x763 (= cell_3_3 4)))
 (let (($x779 (= cell_3_3 3)))
 (let (($x1057 (= cell_3_3 2)))
 (let (($x701 (= cell_3_3 1)))
 (or $x701 $x1057 $x779 $x763 $x987 $x302 $x454 $x319 $x260)))))))))))
(assert
 (let (($x682 (= cell_4_3 9)))
 (let (($x12 (= cell_4_3 8)))
 (let (($x966 (= cell_4_3 7)))
 (let (($x105 (= cell_4_3 6)))
 (let (($x1272 (= cell_4_3 5)))
 (let (($x660 (= cell_4_3 4)))
 (let (($x859 (= cell_4_3 3)))
 (let (($x545 (= cell_4_3 2)))
 (let (($x1155 (= cell_4_3 1)))
 (or $x1155 $x545 $x859 $x660 $x1272 $x105 $x966 $x12 $x682)))))))))))
(assert
 (let (($x515 (= cell_5_3 9)))
 (let (($x898 (= cell_5_3 8)))
 (let (($x969 (= cell_5_3 7)))
 (let (($x902 (= cell_5_3 6)))
 (let (($x495 (= cell_5_3 5)))
 (let (($x695 (= cell_5_3 4)))
 (let (($x1510 (= cell_5_3 3)))
 (let (($x1419 (= cell_5_3 2)))
 (let (($x243 (= cell_5_3 1)))
 (or $x243 $x1419 $x1510 $x695 $x495 $x902 $x969 $x898 $x515)))))))))))
(assert
 (let (($x1521 (= cell_6_3 9)))
 (let (($x946 (= cell_6_3 8)))
 (let (($x1290 (= cell_6_3 7)))
 (let (($x912 (= cell_6_3 6)))
 (let (($x953 (= cell_6_3 5)))
 (let (($x574 (= cell_6_3 4)))
 (let (($x801 (= cell_6_3 3)))
 (let (($x686 (= cell_6_3 2)))
 (let (($x256 (= cell_6_3 1)))
 (or $x256 $x686 $x801 $x574 $x953 $x912 $x1290 $x946 $x1521)))))))))))
(assert
 (let (($x1254 (= cell_7_3 9)))
 (let (($x124 (= cell_7_3 8)))
 (let (($x317 (= cell_7_3 7)))
 (let (($x733 (= cell_7_3 6)))
 (let (($x1412 (= cell_7_3 5)))
 (let (($x1212 (= cell_7_3 4)))
 (let (($x866 (= cell_7_3 3)))
 (let (($x483 (= cell_7_3 2)))
 (let (($x911 (= cell_7_3 1)))
 (or $x911 $x483 $x866 $x1212 $x1412 $x733 $x317 $x124 $x1254)))))))))))
(assert
 (let (($x1112 (= cell_8_3 9)))
 (let (($x970 (= cell_8_3 8)))
 (let (($x590 (= cell_8_3 7)))
 (let (($x1417 (= cell_8_3 6)))
 (let (($x994 (= cell_8_3 5)))
 (let (($x1208 (= cell_8_3 4)))
 (let (($x84 (= cell_8_3 3)))
 (let (($x1083 (= cell_8_3 2)))
 (let (($x591 (= cell_8_3 1)))
 (or $x591 $x1083 $x84 $x1208 $x994 $x1417 $x590 $x970 $x1112)))))))))))
(assert
 (let (($x998 (= cell_9_3 9)))
 (let (($x1007 (= cell_9_3 8)))
 (let (($x1524 (= cell_9_3 7)))
 (let (($x135 (= cell_9_3 6)))
 (let (($x1496 (= cell_9_3 5)))
 (let (($x352 (= cell_9_3 4)))
 (let (($x233 (= cell_9_3 3)))
 (let (($x406 (= cell_9_3 2)))
 (let (($x1098 (= cell_9_3 1)))
 (or $x1098 $x406 $x233 $x352 $x1496 $x135 $x1524 $x1007 $x998)))))))))))
(assert
 (let (($x320 (= cell_1_4 9)))
 (let (($x264 (= cell_1_4 8)))
 (let (($x949 (= cell_1_4 7)))
 (let (($x776 (= cell_1_4 6)))
 (let (($x631 (= cell_1_4 5)))
 (let (($x985 (= cell_1_4 4)))
 (let (($x375 (= cell_1_4 3)))
 (let (($x277 (= cell_1_4 2)))
 (let (($x526 (= cell_1_4 1)))
 (or $x526 $x277 $x375 $x985 $x631 $x776 $x949 $x264 $x320)))))))))))
(assert
 (let (($x258 (= cell_2_4 9)))
 (let (($x642 (= cell_2_4 8)))
 (let (($x1513 (= cell_2_4 7)))
 (let (($x1052 (= cell_2_4 6)))
 (let (($x1038 (= cell_2_4 5)))
 (let (($x935 (= cell_2_4 4)))
 (let (($x1492 (= cell_2_4 3)))
 (let (($x811 (= cell_2_4 2)))
 (let (($x1203 (= cell_2_4 1)))
 (or $x1203 $x811 $x1492 $x935 $x1038 $x1052 $x1513 $x642 $x258)))))))))))
(assert
 (let (($x589 (= cell_3_4 9)))
 (let (($x335 (= cell_3_4 8)))
 (let (($x1170 (= cell_3_4 7)))
 (let (($x149 (= cell_3_4 6)))
 (let (($x1195 (= cell_3_4 5)))
 (let (($x967 (= cell_3_4 4)))
 (let (($x103 (= cell_3_4 3)))
 (let (($x293 (= cell_3_4 2)))
 (let (($x628 (= cell_3_4 1)))
 (or $x628 $x293 $x103 $x967 $x1195 $x149 $x1170 $x335 $x589)))))))))))
(assert
 (let (($x1074 (= cell_4_4 9)))
 (let (($x348 (= cell_4_4 8)))
 (let (($x226 (= cell_4_4 7)))
 (let (($x623 (= cell_4_4 6)))
 (let (($x1118 (= cell_4_4 5)))
 (let (($x961 (= cell_4_4 4)))
 (let (($x672 (= cell_4_4 3)))
 (let (($x1301 (= cell_4_4 2)))
 (let (($x208 (= cell_4_4 1)))
 (or $x208 $x1301 $x672 $x961 $x1118 $x623 $x226 $x348 $x1074)))))))))))
(assert
 (let (($x768 (= cell_5_4 9)))
 (let (($x618 (= cell_5_4 8)))
 (let (($x1505 (= cell_5_4 7)))
 (let (($x292 (= cell_5_4 6)))
 (let (($x885 (= cell_5_4 5)))
 (let (($x538 (= cell_5_4 4)))
 (let (($x253 (= cell_5_4 3)))
 (let (($x236 (= cell_5_4 2)))
 (let (($x613 (= cell_5_4 1)))
 (or $x613 $x236 $x253 $x538 $x885 $x292 $x1505 $x618 $x768)))))))))))
(assert
 (let (($x798 (= cell_6_4 9)))
 (let (($x1197 (= cell_6_4 8)))
 (let (($x891 (= cell_6_4 7)))
 (let (($x802 (= cell_6_4 6)))
 (let (($x737 (= cell_6_4 5)))
 (let (($x363 (= cell_6_4 4)))
 (let (($x1222 (= cell_6_4 3)))
 (let (($x773 (= cell_6_4 2)))
 (let (($x244 (= cell_6_4 1)))
 (or $x244 $x773 $x1222 $x363 $x737 $x802 $x891 $x1197 $x798)))))))))))
(assert
 (let (($x463 (= cell_7_4 9)))
 (let (($x1223 (= cell_7_4 8)))
 (let (($x1132 (= cell_7_4 7)))
 (let (($x1148 (= cell_7_4 6)))
 (let (($x494 (= cell_7_4 5)))
 (let (($x201 (= cell_7_4 4)))
 (let (($x1204 (= cell_7_4 3)))
 (let (($x445 (= cell_7_4 2)))
 (let (($x144 (= cell_7_4 1)))
 (or $x144 $x445 $x1204 $x201 $x494 $x1148 $x1132 $x1223 $x463)))))))))))
(assert
 (let (($x343 (= cell_8_4 9)))
 (let (($x99 (= cell_8_4 8)))
 (let (($x1213 (= cell_8_4 7)))
 (let (($x558 (= cell_8_4 6)))
 (let (($x330 (= cell_8_4 5)))
 (let (($x692 (= cell_8_4 4)))
 (let (($x430 (= cell_8_4 3)))
 (let (($x1039 (= cell_8_4 2)))
 (let (($x87 (= cell_8_4 1)))
 (or $x87 $x1039 $x430 $x692 $x330 $x558 $x1213 $x99 $x343)))))))))))
(assert
 (let (($x298 (= cell_9_4 9)))
 (let (($x555 (= cell_9_4 8)))
 (let (($x316 (= cell_9_4 7)))
 (let (($x242 (= cell_9_4 6)))
 (let (($x1140 (= cell_9_4 5)))
 (let (($x901 (= cell_9_4 4)))
 (let (($x687 (= cell_9_4 3)))
 (let (($x367 (= cell_9_4 2)))
 (let (($x1087 (= cell_9_4 1)))
 (or $x1087 $x367 $x687 $x901 $x1140 $x242 $x316 $x555 $x298)))))))))))
(assert
 (let (($x573 (= cell_1_5 9)))
 (let (($x767 (= cell_1_5 8)))
 (let (($x522 (= cell_1_5 7)))
 (let (($x1316 (= cell_1_5 6)))
 (let (($x753 (= cell_1_5 5)))
 (let (($x1609 (= cell_1_5 4)))
 (let (($x1293 (= cell_1_5 3)))
 (let (($x1307 (= cell_1_5 2)))
 (let (($x999 (= cell_1_5 1)))
 (or $x999 $x1307 $x1293 $x1609 $x753 $x1316 $x522 $x767 $x573)))))))))))
(assert
 (let (($x86 (= cell_2_5 9)))
 (let (($x808 (= cell_2_5 8)))
 (let (($x271 (= cell_2_5 7)))
 (let (($x865 (= cell_2_5 6)))
 (let (($x1149 (= cell_2_5 5)))
 (let (($x1078 (= cell_2_5 4)))
 (let (($x827 (= cell_2_5 3)))
 (let (($x1012 (= cell_2_5 2)))
 (let (($x398 (= cell_2_5 1)))
 (or $x398 $x1012 $x827 $x1078 $x1149 $x865 $x271 $x808 $x86)))))))))))
(assert
 (let (($x431 (= cell_3_5 9)))
 (let (($x1438 (= cell_3_5 8)))
 (let (($x760 (= cell_3_5 7)))
 (let (($x206 (= cell_3_5 6)))
 (let (($x709 (= cell_3_5 5)))
 (let (($x609 (= cell_3_5 4)))
 (let (($x1135 (= cell_3_5 3)))
 (let (($x447 (= cell_3_5 2)))
 (let (($x269 (= cell_3_5 1)))
 (or $x269 $x447 $x1135 $x609 $x709 $x206 $x760 $x1438 $x431)))))))))))
(assert
 (let (($x1267 (= cell_4_5 9)))
 (let (($x1209 (= cell_4_5 8)))
 (let (($x1133 (= cell_4_5 7)))
 (let (($x344 (= cell_4_5 6)))
 (let (($x570 (= cell_4_5 5)))
 (let (($x710 (= cell_4_5 4)))
 (let (($x217 (= cell_4_5 3)))
 (let (($x490 (= cell_4_5 2)))
 (let (($x364 (= cell_4_5 1)))
 (or $x364 $x490 $x217 $x710 $x570 $x344 $x1133 $x1209 $x1267)))))))))))
(assert
 (let (($x1441 (= cell_5_5 9)))
 (let (($x622 (= cell_5_5 8)))
 (let (($x1010 (= cell_5_5 7)))
 (let (($x1047 (= cell_5_5 6)))
 (let (($x441 (= cell_5_5 5)))
 (let (($x216 (= cell_5_5 4)))
 (let (($x152 (= cell_5_5 3)))
 (let (($x1097 (= cell_5_5 2)))
 (let (($x345 (= cell_5_5 1)))
 (or $x345 $x1097 $x152 $x216 $x441 $x1047 $x1010 $x622 $x1441)))))))))))
(assert
 (let (($x347 (= cell_6_5 9)))
 (let (($x378 (= cell_6_5 8)))
 (let (($x1363 (= cell_6_5 7)))
 (let (($x323 (= cell_6_5 6)))
 (let (($x461 (= cell_6_5 5)))
 (let (($x377 (= cell_6_5 4)))
 (let (($x1151 (= cell_6_5 3)))
 (let (($x412 (= cell_6_5 2)))
 (let (($x877 (= cell_6_5 1)))
 (or $x877 $x412 $x1151 $x377 $x461 $x323 $x1363 $x378 $x347)))))))))))
(assert
 (let (($x1215 (= cell_7_5 9)))
 (let (($x464 (= cell_7_5 8)))
 (let (($x432 (= cell_7_5 7)))
 (let (($x993 (= cell_7_5 6)))
 (let (($x481 (= cell_7_5 5)))
 (let (($x1119 (= cell_7_5 4)))
 (let (($x1237 (= cell_7_5 3)))
 (let (($x713 (= cell_7_5 2)))
 (let (($x813 (= cell_7_5 1)))
 (or $x813 $x713 $x1237 $x1119 $x481 $x993 $x432 $x464 $x1215)))))))))))
(assert
 (let (($x990 (= cell_8_5 9)))
 (let (($x1228 (= cell_8_5 8)))
 (let (($x421 (= cell_8_5 7)))
 (let (($x674 (= cell_8_5 6)))
 (let (($x927 (= cell_8_5 5)))
 (let (($x1256 (= cell_8_5 4)))
 (let (($x1304 (= cell_8_5 3)))
 (let (($x646 (= cell_8_5 2)))
 (let (($x237 (= cell_8_5 1)))
 (or $x237 $x646 $x1304 $x1256 $x927 $x674 $x421 $x1228 $x990)))))))))))
(assert
 (let (($x486 (= cell_9_5 9)))
 (let (($x466 (= cell_9_5 8)))
 (let (($x1216 (= cell_9_5 7)))
 (let (($x603 (= cell_9_5 6)))
 (let (($x1124 (= cell_9_5 5)))
 (let (($x559 (= cell_9_5 4)))
 (let (($x835 (= cell_9_5 3)))
 (let (($x267 (= cell_9_5 2)))
 (let (($x527 (= cell_9_5 1)))
 (or $x527 $x267 $x835 $x559 $x1124 $x603 $x1216 $x466 $x486)))))))))))
(assert
 (let (($x1143 (= cell_1_6 9)))
 (let (($x617 (= cell_1_6 8)))
 (let (($x920 (= cell_1_6 7)))
 (let (($x1394 (= cell_1_6 6)))
 (let (($x468 (= cell_1_6 5)))
 (let (($x547 (= cell_1_6 4)))
 (let (($x697 (= cell_1_6 3)))
 (let (($x805 (= cell_1_6 2)))
 (let (($x422 (= cell_1_6 1)))
 (or $x422 $x805 $x697 $x547 $x468 $x1394 $x920 $x617 $x1143)))))))))))
(assert
 (let (($x469 (= cell_2_6 9)))
 (let (($x400 (= cell_2_6 8)))
 (let (($x790 (= cell_2_6 7)))
 (let (($x1489 (= cell_2_6 6)))
 (let (($x249 (= cell_2_6 5)))
 (let (($x91 (= cell_2_6 4)))
 (let (($x1458 (= cell_2_6 3)))
 (let (($x313 (= cell_2_6 2)))
 (let (($x1325 (= cell_2_6 1)))
 (or $x1325 $x313 $x1458 $x91 $x249 $x1489 $x790 $x400 $x469)))))))))))
(assert
 (let (($x1005 (= cell_3_6 9)))
 (let (($x1045 (= cell_3_6 8)))
 (let (($x1068 (= cell_3_6 7)))
 (let (($x496 (= cell_3_6 6)))
 (let (($x1035 (= cell_3_6 5)))
 (let (($x78 (= cell_3_6 4)))
 (let (($x175 (= cell_3_6 3)))
 (let (($x95 (= cell_3_6 2)))
 (let (($x1171 (= cell_3_6 1)))
 (or $x1171 $x95 $x175 $x78 $x1035 $x496 $x1068 $x1045 $x1005)))))))))))
(assert
 (let (($x602 (= cell_4_6 9)))
 (let (($x769 (= cell_4_6 8)))
 (let (($x443 (= cell_4_6 7)))
 (let (($x1243 (= cell_4_6 6)))
 (let (($x754 (= cell_4_6 5)))
 (let (($x109 (= cell_4_6 4)))
 (let (($x678 (= cell_4_6 3)))
 (let (($x632 (= cell_4_6 2)))
 (let (($x1383 (= cell_4_6 1)))
 (or $x1383 $x632 $x678 $x109 $x754 $x1243 $x443 $x769 $x602)))))))))))
(assert
 (let (($x1041 (= cell_5_6 9)))
 (let (($x1389 (= cell_5_6 8)))
 (let (($x1134 (= cell_5_6 7)))
 (let (($x742 (= cell_5_6 6)))
 (let (($x606 (= cell_5_6 5)))
 (let (($x981 (= cell_5_6 4)))
 (let (($x1462 (= cell_5_6 3)))
 (let (($x1094 (= cell_5_6 2)))
 (let (($x780 (= cell_5_6 1)))
 (or $x780 $x1094 $x1462 $x981 $x606 $x742 $x1134 $x1389 $x1041)))))))))))
(assert
 (let (($x1066 (= cell_6_6 9)))
 (let (($x722 (= cell_6_6 8)))
 (let (($x578 (= cell_6_6 7)))
 (let (($x1303 (= cell_6_6 6)))
 (let (($x456 (= cell_6_6 5)))
 (let (($x259 (= cell_6_6 4)))
 (let (($x167 (= cell_6_6 3)))
 (let (($x1082 (= cell_6_6 2)))
 (let (($x280 (= cell_6_6 1)))
 (or $x280 $x1082 $x167 $x259 $x456 $x1303 $x578 $x722 $x1066)))))))))))
(assert
 (let (($x669 (= cell_7_6 9)))
 (let (($x681 (= cell_7_6 8)))
 (let (($x139 (= cell_7_6 7)))
 (let (($x615 (= cell_7_6 6)))
 (let (($x1400 (= cell_7_6 5)))
 (let (($x327 (= cell_7_6 4)))
 (let (($x562 (= cell_7_6 3)))
 (let (($x620 (= cell_7_6 2)))
 (let (($x995 (= cell_7_6 1)))
 (or $x995 $x620 $x562 $x327 $x1400 $x615 $x139 $x681 $x669)))))))))))
(assert
 (let (($x1406 (= cell_8_6 9)))
 (let (($x1034 (= cell_8_6 8)))
 (let (($x1172 (= cell_8_6 7)))
 (let (($x107 (= cell_8_6 6)))
 (let (($x1445 (= cell_8_6 5)))
 (let (($x1490 (= cell_8_6 4)))
 (let (($x997 (= cell_8_6 3)))
 (let (($x229 (= cell_8_6 2)))
 (let (($x675 (= cell_8_6 1)))
 (or $x675 $x229 $x997 $x1490 $x1445 $x107 $x1172 $x1034 $x1406)))))))))))
(assert
 (let (($x1071 (= cell_9_6 9)))
 (let (($x1113 (= cell_9_6 8)))
 (let (($x857 (= cell_9_6 7)))
 (let (($x79 (= cell_9_6 6)))
 (let (($x724 (= cell_9_6 5)))
 (let (($x119 (= cell_9_6 4)))
 (let (($x600 (= cell_9_6 3)))
 (let (($x1102 (= cell_9_6 2)))
 (let (($x89 (= cell_9_6 1)))
 (or $x89 $x1102 $x600 $x119 $x724 $x79 $x857 $x1113 $x1071)))))))))))
(assert
 (let (($x728 (= cell_1_7 9)))
 (let (($x420 (= cell_1_7 8)))
 (let (($x246 (= cell_1_7 7)))
 (let (($x169 (= cell_1_7 6)))
 (let (($x1037 (= cell_1_7 5)))
 (let (($x1349 (= cell_1_7 4)))
 (let (($x568 (= cell_1_7 3)))
 (let (($x138 (= cell_1_7 2)))
 (let (($x1275 (= cell_1_7 1)))
 (or $x1275 $x138 $x568 $x1349 $x1037 $x169 $x246 $x420 $x728)))))))))))
(assert
 (let (($x804 (= cell_2_7 9)))
 (let (($x1086 (= cell_2_7 8)))
 (let (($x333 (= cell_2_7 7)))
 (let (($x787 (= cell_2_7 6)))
 (let (($x266 (= cell_2_7 5)))
 (let (($x1104 (= cell_2_7 4)))
 (let (($x593 (= cell_2_7 3)))
 (let (($x402 (= cell_2_7 2)))
 (let (($x191 (= cell_2_7 1)))
 (or $x191 $x402 $x593 $x1104 $x266 $x787 $x333 $x1086 $x804)))))))))))
(assert
 (let (($x792 (= cell_3_7 9)))
 (let (($x605 (= cell_3_7 8)))
 (let (($x460 (= cell_3_7 7)))
 (let (($x608 (= cell_3_7 6)))
 (let (($x276 (= cell_3_7 5)))
 (let (($x1040 (= cell_3_7 4)))
 (let (($x1141 (= cell_3_7 3)))
 (let (($x1402 (= cell_3_7 2)))
 (let (($x265 (= cell_3_7 1)))
 (or $x265 $x1402 $x1141 $x1040 $x276 $x608 $x460 $x605 $x792)))))))))))
(assert
 (let (($x757 (= cell_4_7 9)))
 (let (($x633 (= cell_4_7 8)))
 (let (($x1220 (= cell_4_7 7)))
 (let (($x758 (= cell_4_7 6)))
 (let (($x1450 (= cell_4_7 5)))
 (let (($x428 (= cell_4_7 4)))
 (let (($x1011 (= cell_4_7 3)))
 (let (($x459 (= cell_4_7 2)))
 (let (($x110 (= cell_4_7 1)))
 (or $x110 $x459 $x1011 $x428 $x1450 $x758 $x1220 $x633 $x757)))))))))))
(assert
 (let (($x924 (= cell_5_7 9)))
 (let (($x1515 (= cell_5_7 8)))
 (let (($x1139 (= cell_5_7 7)))
 (let (($x151 (= cell_5_7 6)))
 (let (($x405 (= cell_5_7 5)))
 (let (($x1261 (= cell_5_7 4)))
 (let (($x919 (= cell_5_7 3)))
 (let (($x235 (= cell_5_7 2)))
 (let (($x532 (= cell_5_7 1)))
 (or $x532 $x235 $x919 $x1261 $x405 $x151 $x1139 $x1515 $x924)))))))))))
(assert
 (let (($x424 (= cell_6_7 9)))
 (let (($x978 (= cell_6_7 8)))
 (let (($x1405 (= cell_6_7 7)))
 (let (($x497 (= cell_6_7 6)))
 (let (($x756 (= cell_6_7 5)))
 (let (($x1523 (= cell_6_7 4)))
 (let (($x1342 (= cell_6_7 3)))
 (let (($x108 (= cell_6_7 2)))
 (let (($x1226 (= cell_6_7 1)))
 (or $x1226 $x108 $x1342 $x1523 $x756 $x497 $x1405 $x978 $x424)))))))))))
(assert
 (let (($x381 (= cell_7_7 9)))
 (let (($x731 (= cell_7_7 8)))
 (let (($x1259 (= cell_7_7 7)))
 (let (($x488 (= cell_7_7 6)))
 (let (($x1289 (= cell_7_7 5)))
 (let (($x766 (= cell_7_7 4)))
 (let (($x983 (= cell_7_7 3)))
 (let (($x860 (= cell_7_7 2)))
 (let (($x1242 (= cell_7_7 1)))
 (or $x1242 $x860 $x983 $x766 $x1289 $x488 $x1259 $x731 $x381)))))))))))
(assert
 (let (($x370 (= cell_8_7 9)))
 (let (($x1384 (= cell_8_7 8)))
 (let (($x306 (= cell_8_7 7)))
 (let (($x1546 (= cell_8_7 6)))
 (let (($x1501 (= cell_8_7 5)))
 (let (($x1065 (= cell_8_7 4)))
 (let (($x1020 (= cell_8_7 3)))
 (let (($x509 (= cell_8_7 2)))
 (let (($x499 (= cell_8_7 1)))
 (or $x499 $x509 $x1020 $x1065 $x1501 $x1546 $x306 $x1384 $x370)))))))))))
(assert
 (let (($x823 (= cell_9_7 9)))
 (let (($x663 (= cell_9_7 8)))
 (let (($x423 (= cell_9_7 7)))
 (let (($x638 (= cell_9_7 6)))
 (let (($x385 (= cell_9_7 5)))
 (let (($x1115 (= cell_9_7 4)))
 (let (($x1380 (= cell_9_7 3)))
 (let (($x781 (= cell_9_7 2)))
 (let (($x1410 (= cell_9_7 1)))
 (or $x1410 $x781 $x1380 $x1115 $x385 $x638 $x423 $x663 $x823)))))))))))
(assert
 (let (($x295 (= cell_1_8 9)))
 (let (($x1387 (= cell_1_8 8)))
 (let (($x586 (= cell_1_8 7)))
 (let (($x1024 (= cell_1_8 6)))
 (let (($x10 (= cell_1_8 5)))
 (let (($x261 (= cell_1_8 4)))
 (let (($x571 (= cell_1_8 3)))
 (let (($x247 (= cell_1_8 2)))
 (let (($x308 (= cell_1_8 1)))
 (or $x308 $x247 $x571 $x261 $x10 $x1024 $x586 $x1387 $x295)))))))))))
(assert
 (let (($x1425 (= cell_2_8 9)))
 (let (($x635 (= cell_2_8 8)))
 (let (($x838 (= cell_2_8 7)))
 (let (($x128 (= cell_2_8 6)))
 (let (($x510 (= cell_2_8 5)))
 (let (($x435 (= cell_2_8 4)))
 (let (($x470 (= cell_2_8 3)))
 (let (($x1415 (= cell_2_8 2)))
 (let (($x209 (= cell_2_8 1)))
 (or $x209 $x1415 $x470 $x435 $x510 $x128 $x838 $x635 $x1425)))))))))))
(assert
 (let (($x918 (= cell_3_8 9)))
 (let (($x127 (= cell_3_8 8)))
 (let (($x436 (= cell_3_8 7)))
 (let (($x487 (= cell_3_8 6)))
 (let (($x1079 (= cell_3_8 5)))
 (let (($x453 (= cell_3_8 4)))
 (let (($x748 (= cell_3_8 3)))
 (let (($x180 (= cell_3_8 2)))
 (let (($x1476 (= cell_3_8 1)))
 (or $x1476 $x180 $x748 $x453 $x1079 $x487 $x436 $x127 $x918)))))))))))
(assert
 (let (($x307 (= cell_4_8 9)))
 (let (($x636 (= cell_4_8 8)))
 (let (($x583 (= cell_4_8 7)))
 (let (($x1448 (= cell_4_8 6)))
 (let (($x1103 (= cell_4_8 5)))
 (let (($x437 (= cell_4_8 4)))
 (let (($x1356 (= cell_4_8 3)))
 (let (($x1033 (= cell_4_8 2)))
 (let (($x225 (= cell_4_8 1)))
 (or $x225 $x1033 $x1356 $x437 $x1103 $x1448 $x583 $x636 $x307)))))))))))
(assert
 (let (($x980 (= cell_5_8 9)))
 (let (($x204 (= cell_5_8 8)))
 (let (($x619 (= cell_5_8 7)))
 (let (($x288 (= cell_5_8 6)))
 (let (($x1077 (= cell_5_8 5)))
 (let (($x1422 (= cell_5_8 4)))
 (let (($x1313 (= cell_5_8 3)))
 (let (($x1107 (= cell_5_8 2)))
 (let (($x1121 (= cell_5_8 1)))
 (or $x1121 $x1107 $x1313 $x1422 $x1077 $x288 $x619 $x204 $x980)))))))))))
(assert
 (let (($x403 (= cell_6_8 9)))
 (let (($x1229 (= cell_6_8 8)))
 (let (($x1385 (= cell_6_8 7)))
 (let (($x1257 (= cell_6_8 6)))
 (let (($x1282 (= cell_6_8 5)))
 (let (($x641 (= cell_6_8 4)))
 (let (($x1153 (= cell_6_8 3)))
 (let (($x1069 (= cell_6_8 2)))
 (let (($x133 (= cell_6_8 1)))
 (or $x133 $x1069 $x1153 $x641 $x1282 $x1257 $x1385 $x1229 $x403)))))))))))
(assert
 (let (($x652 (= cell_7_8 9)))
 (let (($x825 (= cell_7_8 8)))
 (let (($x1152 (= cell_7_8 7)))
 (let (($x887 (= cell_7_8 6)))
 (let (($x1244 (= cell_7_8 5)))
 (let (($x192 (= cell_7_8 4)))
 (let (($x735 (= cell_7_8 3)))
 (let (($x472 (= cell_7_8 2)))
 (let (($x326 (= cell_7_8 1)))
 (or $x326 $x472 $x735 $x192 $x1244 $x887 $x1152 $x825 $x652)))))))))))
(assert
 (let (($x599 (= cell_8_8 9)))
 (let (($x824 (= cell_8_8 8)))
 (let (($x720 (= cell_8_8 7)))
 (let (($x1288 (= cell_8_8 6)))
 (let (($x365 (= cell_8_8 5)))
 (let (($x513 (= cell_8_8 4)))
 (let (($x1416 (= cell_8_8 3)))
 (let (($x845 (= cell_8_8 2)))
 (let (($x1184 (= cell_8_8 1)))
 (or $x1184 $x845 $x1416 $x513 $x365 $x1288 $x720 $x824 $x599)))))))))))
(assert
 (let (($x489 (= cell_9_8 9)))
 (let (($x988 (= cell_9_8 8)))
 (let (($x1181 (= cell_9_8 7)))
 (let (($x304 (= cell_9_8 6)))
 (let (($x1092 (= cell_9_8 5)))
 (let (($x1201 (= cell_9_8 4)))
 (let (($x361 (= cell_9_8 3)))
 (let (($x212 (= cell_9_8 2)))
 (let (($x81 (= cell_9_8 1)))
 (or $x81 $x212 $x361 $x1201 $x1092 $x304 $x1181 $x988 $x489)))))))))))
(assert
 (let (($x621 (= cell_1_9 9)))
 (let (($x1190 (= cell_1_9 8)))
 (let (($x409 (= cell_1_9 7)))
 (let (($x1016 (= cell_1_9 6)))
 (let (($x248 (= cell_1_9 5)))
 (let (($x905 (= cell_1_9 4)))
 (let (($x374 (= cell_1_9 3)))
 (let (($x908 (= cell_1_9 2)))
 (let (($x1235 (= cell_1_9 1)))
 (or $x1235 $x908 $x374 $x905 $x248 $x1016 $x409 $x1190 $x621)))))))))))
(assert
 (let (($x673 (= cell_2_9 9)))
 (let (($x879 (= cell_2_9 8)))
 (let (($x771 (= cell_2_9 7)))
 (let (($x1507 (= cell_2_9 6)))
 (let (($x1159 (= cell_2_9 5)))
 (let (($x274 (= cell_2_9 4)))
 (let (($x554 (= cell_2_9 3)))
 (let (($x819 (= cell_2_9 2)))
 (let (($x413 (= cell_2_9 1)))
 (or $x413 $x819 $x554 $x274 $x1159 $x1507 $x771 $x879 $x673)))))))))))
(assert
 (let (($x1046 (= cell_3_9 9)))
 (let (($x1311 (= cell_3_9 8)))
 (let (($x932 (= cell_3_9 7)))
 (let (($x427 (= cell_3_9 6)))
 (let (($x442 (= cell_3_9 5)))
 (let (($x1027 (= cell_3_9 4)))
 (let (($x1168 (= cell_3_9 3)))
 (let (($x921 (= cell_3_9 2)))
 (let (($x1154 (= cell_3_9 1)))
 (or $x1154 $x921 $x1168 $x1027 $x442 $x427 $x932 $x1311 $x1046)))))))))))
(assert
 (let (($x1050 (= cell_4_9 9)))
 (let (($x1542 (= cell_4_9 8)))
 (let (($x581 (= cell_4_9 7)))
 (let (($x552 (= cell_4_9 6)))
 (let (($x544 (= cell_4_9 5)))
 (let (($x1333 (= cell_4_9 4)))
 (let (($x1006 (= cell_4_9 3)))
 (let (($x1188 (= cell_4_9 2)))
 (let (($x1522 (= cell_4_9 1)))
 (or $x1522 $x1188 $x1006 $x1333 $x544 $x552 $x581 $x1542 $x1050)))))))))))
(assert
 (let (($x915 (= cell_5_9 9)))
 (let (($x322 (= cell_5_9 8)))
 (let (($x1487 (= cell_5_9 7)))
 (let (($x543 (= cell_5_9 6)))
 (let (($x1345 (= cell_5_9 5)))
 (let (($x719 (= cell_5_9 4)))
 (let (($x531 (= cell_5_9 3)))
 (let (($x1073 (= cell_5_9 2)))
 (let (($x1206 (= cell_5_9 1)))
 (or $x1206 $x1073 $x531 $x719 $x1345 $x543 $x1487 $x322 $x915)))))))))))
(assert
 (let (($x80 (= cell_6_9 9)))
 (let (($x1480 (= cell_6_9 8)))
 (let (($x1457 (= cell_6_9 7)))
 (let (($x925 (= cell_6_9 6)))
 (let (($x535 (= cell_6_9 5)))
 (let (($x154 (= cell_6_9 4)))
 (let (($x551 (= cell_6_9 3)))
 (let (($x693 (= cell_6_9 2)))
 (let (($x257 (= cell_6_9 1)))
 (or $x257 $x693 $x551 $x154 $x535 $x925 $x1457 $x1480 $x80)))))))))))
(assert
 (let (($x503 (= cell_7_9 9)))
 (let (($x864 (= cell_7_9 8)))
 (let (($x189 (= cell_7_9 7)))
 (let (($x976 (= cell_7_9 6)))
 (let (($x1211 (= cell_7_9 5)))
 (let (($x869 (= cell_7_9 4)))
 (let (($x1116 (= cell_7_9 3)))
 (let (($x1285 (= cell_7_9 2)))
 (let (($x1355 (= cell_7_9 1)))
 (or $x1355 $x1285 $x1116 $x869 $x1211 $x976 $x189 $x864 $x503)))))))))))
(assert
 (let (($x706 (= cell_8_9 9)))
 (let (($x1075 (= cell_8_9 8)))
 (let (($x155 (= cell_8_9 7)))
 (let (($x1435 (= cell_8_9 6)))
 (let (($x294 (= cell_8_9 5)))
 (let (($x508 (= cell_8_9 4)))
 (let (($x1081 (= cell_8_9 3)))
 (let (($x156 (= cell_8_9 2)))
 (let (($x929 (= cell_8_9 1)))
 (or $x929 $x156 $x1081 $x508 $x294 $x1435 $x155 $x1075 $x706)))))))))))
(assert
 (let (($x715 (= cell_9_9 9)))
 (let (($x1263 (= cell_9_9 8)))
 (let (($x401 (= cell_9_9 7)))
 (let (($x439 (= cell_9_9 6)))
 (let (($x665 (= cell_9_9 5)))
 (let (($x159 (= cell_9_9 4)))
 (let (($x512 (= cell_9_9 3)))
 (let (($x296 (= cell_9_9 2)))
 (let (($x376 (= cell_9_9 1)))
 (or $x376 $x296 $x512 $x159 $x665 $x439 $x401 $x1263 $x715)))))))))))
(assert
 (and (distinct cell_1_1 cell_1_2 cell_1_3 cell_1_4 cell_1_5 cell_1_6 cell_1_7 cell_1_8 cell_1_9) true))
(assert
 (and (distinct cell_2_1 cell_2_2 cell_2_3 cell_2_4 cell_2_5 cell_2_6 cell_2_7 cell_2_8 cell_2_9) true))
(assert
 (and (distinct cell_3_1 cell_3_2 cell_3_3 cell_3_4 cell_3_5 cell_3_6 cell_3_7 cell_3_8 cell_3_9) true))
(assert
 (and (distinct cell_4_1 cell_4_2 cell_4_3 cell_4_4 cell_4_5 cell_4_6 cell_4_7 cell_4_8 cell_4_9) true))
(assert
 (and (distinct cell_5_1 cell_5_2 cell_5_3 cell_5_4 cell_5_5 cell_5_6 cell_5_7 cell_5_8 cell_5_9) true))
(assert
 (and (distinct cell_6_1 cell_6_2 cell_6_3 cell_6_4 cell_6_5 cell_6_6 cell_6_7 cell_6_8 cell_6_9) true))
(assert
 (and (distinct cell_7_1 cell_7_2 cell_7_3 cell_7_4 cell_7_5 cell_7_6 cell_7_7 cell_7_8 cell_7_9) true))
(assert
 (and (distinct cell_8_1 cell_8_2 cell_8_3 cell_8_4 cell_8_5 cell_8_6 cell_8_7 cell_8_8 cell_8_9) true))
(assert
 (and (distinct cell_9_1 cell_9_2 cell_9_3 cell_9_4 cell_9_5 cell_9_6 cell_9_7 cell_9_8 cell_9_9) true))
(assert
 (and (distinct cell_1_1 cell_2_1 cell_3_1 cell_4_1 cell_5_1 cell_6_1 cell_7_1 cell_8_1 cell_9_1) true))
(assert
 (and (distinct cell_1_2 cell_2_2 cell_3_2 cell_4_2 cell_5_2 cell_6_2 cell_7_2 cell_8_2 cell_9_2) true))
(assert
 (and (distinct cell_1_3 cell_2_3 cell_3_3 cell_4_3 cell_5_3 cell_6_3 cell_7_3 cell_8_3 cell_9_3) true))
(assert
 (and (distinct cell_1_4 cell_2_4 cell_3_4 cell_4_4 cell_5_4 cell_6_4 cell_7_4 cell_8_4 cell_9_4) true))
(assert
 (and (distinct cell_1_5 cell_2_5 cell_3_5 cell_4_5 cell_5_5 cell_6_5 cell_7_5 cell_8_5 cell_9_5) true))
(assert
 (and (distinct cell_1_6 cell_2_6 cell_3_6 cell_4_6 cell_5_6 cell_6_6 cell_7_6 cell_8_6 cell_9_6) true))
(assert
 (and (distinct cell_1_7 cell_2_7 cell_3_7 cell_4_7 cell_5_7 cell_6_7 cell_7_7 cell_8_7 cell_9_7) true))
(assert
 (and (distinct cell_1_8 cell_2_8 cell_3_8 cell_4_8 cell_5_8 cell_6_8 cell_7_8 cell_8_8 cell_9_8) true))
(assert
 (and (distinct cell_1_9 cell_2_9 cell_3_9 cell_4_9 cell_5_9 cell_6_9 cell_7_9 cell_8_9 cell_9_9) true))
(assert
 (and (distinct cell_1_1 cell_1_2 cell_1_3 cell_2_1 cell_2_2 cell_2_3 cell_3_1 cell_3_2 cell_3_3) true))
(assert
 (and (distinct cell_1_4 cell_1_5 cell_1_6 cell_2_4 cell_2_5 cell_2_6 cell_3_4 cell_3_5 cell_3_6) true))
(assert
 (and (distinct cell_1_7 cell_1_8 cell_1_9 cell_2_7 cell_2_8 cell_2_9 cell_3_7 cell_3_8 cell_3_9) true))
(assert
 (and (distinct cell_4_1 cell_4_2 cell_4_3 cell_5_1 cell_5_2 cell_5_3 cell_6_1 cell_6_2 cell_6_3) true))
(assert
 (and (distinct cell_4_4 cell_4_5 cell_4_6 cell_5_4 cell_5_5 cell_5_6 cell_6_4 cell_6_5 cell_6_6) true))
(assert
 (and (distinct cell_4_7 cell_4_8 cell_4_9 cell_5_7 cell_5_8 cell_5_9 cell_6_7 cell_6_8 cell_6_9) true))
(assert
 (and (distinct cell_7_1 cell_7_2 cell_7_3 cell_8_1 cell_8_2 cell_8_3 cell_9_1 cell_9_2 cell_9_3) true))
(assert
 (and (distinct cell_7_4 cell_7_5 cell_7_6 cell_8_4 cell_8_5 cell_8_6 cell_9_4 cell_9_5 cell_9_6) true))
(assert
 (and (distinct cell_7_7 cell_7_8 cell_7_9 cell_8_7 cell_8_8 cell_8_9 cell_9_7 cell_9_8 cell_9_9) true))
(assert
 (let (($x162 (and (distinct cell_5_9 cell_6_8 cell_7_7 cell_8_6) true)))
 (let (($x1042 (and (distinct cell_2_9 cell_3_8 cell_4_7 cell_5_6 cell_6_5 cell_7_4 cell_8_3 cell_9_2) true)))
 (let (($x457 (and (distinct cell_1_8 cell_2_7 cell_3_6 cell_4_5 cell_5_4 cell_6_3 cell_7_2 cell_8_1) true)))
 (let (($x690 (and (distinct cell_1_5 cell_2_4 cell_3_3 cell_4_2) true)))
 (let (($x782 (and (distinct cell_5_1 cell_6_2 cell_7_3 cell_8_4) true)))
 (let (($x170 (and (distinct cell_2_1 cell_3_2 cell_4_3 cell_5_4 cell_6_5 cell_7_6 cell_8_7 cell_9_8) true)))
 (let (($x597 (and (distinct cell_1_2 cell_2_3 cell_3_4 cell_4_5 cell_5_6 cell_6_7 cell_7_8 cell_8_9) true)))
 (let (($x1459 (and (distinct cell_1_5 cell_2_6 cell_3_7 cell_4_8) true)))
 (and $x1459 $x597 $x170 $x782 $x690 $x457 $x1042 $x162))))))))))
(assert
 (= cell_1_9 1))
(assert
 (= cell_2_1 1))
(assert
 (= cell_3_5 1))
(assert
 (= cell_4_7 1))
(assert
 (= cell_5_2 1))
(assert
 (= cell_6_6 1))
(assert
 (= cell_7_8 1))
(assert
 (= cell_8_4 1))
(assert
 (= cell_9_3 1))
(assert
 (= cell_1_2 2))
(assert
 (= cell_2_4 2))
(assert
 (= cell_3_7 2))
(assert
 (= cell_4_6 2))
(assert
 (= cell_5_9 2))
(assert
 (= cell_6_3 2))
(assert
 (= cell_7_1 2))
(assert
 (= cell_8_5 2))
(assert
 (= cell_9_8 2))
(assert
 (= cell_1_7 3))
(check-sat)

